p wcnf 183 366 367 
1 -142 -5 0 
1 181 -173 0 
1 182 -25 0 
1 -123 31 0 
1 166 -104 0 
1 -24 -109 0 
1 -52 -32 0 
1 -23 91 0 
1 -137 -145 0 
1 -11 -17 0 
1 -129 160 0 
1 -90 -9 0 
1 -69 153 0 
1 132 -111 0 
1 144 125 0 
1 175 -41 0 
1 87 -65 0 
1 -136 149 0 
1 67 86 0 
1 42 -132 0 
1 74 -49 0 
1 -178 64 0 
1 163 56 0 
1 91 105 0 
1 18 122 0 
1 108 -156 0 
1 -117 -43 0 
1 -104 128 0 
1 163 -123 0 
1 155 -141 0 
1 -173 -145 0 
1 145 -35 0 
1 166 -98 0 
1 -146 -11 0 
1 -75 89 0 
1 -120 94 0 
1 7 123 0 
1 16 177 0 
1 -134 -3 0 
1 127 -80 0 
1 -145 -113 0 
1 79 147 0 
1 -181 -175 0 
1 57 146 0 
1 -6 -55 0 
1 24 -61 0 
1 -114 111 0 
1 10 172 0 
1 23 7 0 
1 101 -43 0 
1 132 159 0 
1 -151 126 0 
1 -149 135 0 
1 -174 20 0 
1 -87 176 0 
1 46 -70 0 
1 56 57 0 
1 -110 28 0 
1 -71 49 0 
1 -146 -144 0 
1 -4 1 0 
1 148 -71 0 
1 -125 -4 0 
1 -151 118 0 
1 -90 112 0 
1 -40 28 0 
1 13 67 0 
1 69 5 0 
1 63 -144 0 
1 -138 -62 0 
1 65 -70 0 
1 122 -44 0 
1 -57 -114 0 
1 119 146 0 
1 -69 -104 0 
1 -141 -131 0 
1 -35 11 0 
1 -93 80 0 
1 -116 -89 0 
1 -133 167 0 
1 -56 114 0 
1 -17 -39 0 
1 158 -16 0 
1 -95 -109 0 
1 -102 26 0 
1 -25 61 0 
1 20 106 0 
1 -92 -143 0 
1 33 64 0 
1 75 -45 0 
1 -65 -30 0 
1 69 -116 0 
1 -45 162 0 
1 -143 -127 0 
1 81 -34 0 
1 -10 -159 0 
1 133 -172 0 
1 135 180 0 
1 -27 65 0 
1 60 164 0 
1 26 -40 0 
1 -116 -154 0 
1 -152 132 0 
1 -26 -55 0 
1 -150 121 0 
1 -60 20 0 
1 168 -24 0 
1 -57 -123 0 
1 -9 -23 0 
1 148 -3 0 
1 -64 -178 0 
1 40 -8 0 
1 173 116 0 
1 -120 12 0 
1 -18 -103 0 
1 101 114 0 
1 65 61 0 
1 -182 -170 0 
1 130 80 0 
1 -86 24 0 
1 -75 174 0 
1 -142 -137 0 
1 -35 46 0 
1 -150 83 0 
1 176 8 0 
1 170 7 0 
1 -17 -21 0 
1 171 -38 0 
1 -27 -152 0 
1 117 -147 0 
1 -145 -119 0 
1 55 -167 0 
1 25 -125 0 
1 -8 -113 0 
1 -117 -136 0 
1 -148 -82 0 
1 39 -76 0 
1 168 -171 0 
1 14 176 0 
1 -88 -108 0 
1 131 130 0 
1 3 59 0 
1 -182 -126 0 
1 -120 102 0 
1 23 -64 0 
1 -87 -40 0 
1 -99 -90 0 
1 -31 -142 0 
1 -119 125 0 
1 149 -155 0 
1 -173 -180 0 
1 113 -52 0 
1 -24 -160 0 
1 174 12 0 
1 -65 44 0 
1 -2 90 0 
1 -100 113 0 
1 -159 34 0 
1 -116 139 0 
1 -169 -129 0 
1 69 30 0 
1 -142 -147 0 
1 -175 -9 0 
1 -74 -36 0 
1 -3 58 0 
1 -63 -38 0 
1 123 -114 0 
1 -139 59 0 
1 -108 -116 0 
1 -156 106 0 
1 11 104 0 
1 -133 32 0 
1 123 2 0 
1 35 -77 0 
1 -142 73 0 
1 104 107 0 
1 -165 3 0 
1 -132 22 0 
1 128 -169 0 
1 -63 101 0 
1 -9 6 0 
1 -26 11 0 
1 -17 -62 0 
1 179 -84 0 
1 -18 -14 0 
1 12 -44 0 
1 -106 77 0 
1 153 -124 0 
1 -85 -121 0 
1 148 -18 0 
1 168 -41 0 
1 -64 -113 0 
1 93 -98 0 
1 36 -125 0 
1 176 17 0 
1 144 -36 0 
1 -175 -29 0 
1 -148 80 0 
1 -106 47 0 
1 -68 164 0 
1 -169 -29 0 
1 -21 86 0 
1 72 -167 0 
1 -84 -98 0 
1 157 -62 0 
1 -177 128 0 
1 -67 -148 0 
1 40 54 0 
1 164 159 0 
1 -81 133 0 
1 -135 156 0 
1 74 -124 0 
1 -131 -168 0 
1 -42 56 0 
1 58 33 0 
1 -55 -132 0 
1 -103 147 0 
1 172 182 0 
1 -33 5 0 
1 9 -97 0 
1 -139 -175 0 
1 166 -122 0 
1 144 82 0 
1 32 -113 0 
1 69 -37 0 
1 71 -37 0 
1 1 154 0 
1 -35 136 0 
1 139 -94 0 
1 91 -62 0 
1 -60 115 0 
1 -135 -14 0 
1 73 152 0 
1 -21 -134 0 
1 -120 -154 0 
1 48 -94 0 
1 71 130 0 
1 151 -175 0 
1 -50 -132 0 
1 -63 -78 0 
1 -137 48 0 
1 123 22 0 
1 132 2 0 
1 -21 14 0 
1 127 -111 0 
1 141 158 0 
1 -37 162 0 
1 83 18 0 
1 149 -137 0 
1 10 -102 0 
1 -164 -12 0 
1 -43 -41 0 
1 -43 106 0 
1 -101 -30 0 
1 84 134 0 
1 122 -93 0 
1 -98 30 0 
1 4 -140 0 
1 121 135 0 
1 -31 -169 0 
1 -25 -142 0 
1 -34 102 0 
1 135 95 0 
1 15 110 0 
1 162 128 0 
1 37 39 0 
1 -110 51 0 
1 -28 -39 0 
1 -96 46 0 
1 -9 89 0 
1 -38 -149 0 
1 154 -102 0 
1 -103 -95 0 
1 -121 -83 0 
1 163 -68 0 
1 -29 172 0 
1 -145 -59 0 
1 102 -19 0 
1 -163 54 0 
1 -8 176 0 
1 -86 -3 0 
1 73 -175 0 
1 -75 148 0 
1 -157 -174 0 
1 91 -48 0 
1 18 119 0 
1 -73 39 0 
1 86 43 0 
1 -144 57 0 
1 -28 -81 0 
1 -18 -80 0 
1 -103 -52 0 
1 -76 66 0 
1 181 125 0 
1 13 -118 0 
1 25 84 0 
1 -166 -89 0 
1 73 95 0 
1 -10 82 0 
1 -142 -78 0 
1 -151 94 0 
1 144 -107 0 
1 73 35 0 
1 49 -101 0 
1 57 -116 0 
1 -47 32 0 
1 -20 69 0 
1 90 -124 0 
1 134 112 0 
1 131 174 0 
1 82 -55 0 
1 33 91 0 
1 -162 -92 0 
1 90 -77 0 
1 -6 -71 0 
1 -147 29 0 
1 48 81 0 
1 81 96 0 
1 -172 -116 0 
1 -50 -136 0 
1 -85 18 0 
1 109 142 0 
1 -107 72 0 
1 60 66 0 
1 183 -161 0 
1 -140 -109 0 
1 -148 75 0 
1 60 17 0 
1 101 -65 0 
1 101 -70 0 
1 160 -15 0 
1 -58 32 0 
1 -119 32 0 
1 13 171 0 
1 -22 -9 0 
1 21 -5 0 
1 -156 -162 0 
1 -156 56 0 
1 -45 103 0 
1 -171 -152 0 
1 40 -162 0 
1 40 63 0 
1 8 -124 0 
1 -117 3 0 
1 -20 182 0 
1 -26 60 0 
1 84 32 0 
1 -26 -1 0 
1 173 60 0 
1 -182 -114 0 
1 18 -117 0 
1 -125 -29 0 
1 133 -143 0 
1 46 -4 0 
1 10 173 0 
1 -116 -115 0 
1 -106 -104 0 
1 -84 -121 0 
1 -50 -150 0 
1 23 141 0 
1 155 110 0 
1 111 31 0 
1 86 24 0 
1 32 -30 0 
1 -55 135 0 
1 39 22 0 
